num_features = 61;
num_usage_limits = 3;
num_plans = 3;
num_addons = 0;

features = ["assets1","freeFonts","assets2","customDimensionDesigns","export1","export2","socialSharing&PresentationMode","customTemplates","saveDesingsAsTemplates","premiumAssets","mediaTagging","backgroundRemover","contentPlannerPlusFeatures","insightsPlus","magicMediaText2Image","magicMediaText2Video","magicDesign","magicEdit","magicEraser","magicWrite","translator","beatSync","magicSwitch","magicMorph","magicGrab","magicExpand","magicAnimate","adminControlsForAI","comments","linkSharing","teamOnlyLinks","assignTasks","approvals","approvalsNotifications","teamReports","teamPermissions","ownerShipTransfer","inviteTeamMembers","basicContentPlanner","basicDesignInsights","workplaceSocialMedia","workplacePrint","workplacePresentations","workplaceVideo","workplaceSites","workplaceWhiteboards","workplaceDocuments","brandControls","brandTemplates","brandKits","brandKitMaker","elementLockingAndApprovalWorkflows","replaceAssetsTool","cloudStorage","folders","singleSignOn","payAsYouGrowBilling","iso27001certificationAndCompilance","contactMethod","location","availability"];
usage_limits = ["magicDesignUsageTokens","brandKitsUnits","cloudStorageLimit"];
plans = ["FREE","PRO","TEAMS"];
addons = [];

plans_prices = [0,11.99,23];
addons_prices = [];

linked_features = array2d(USAGE_LIMITS, FEATURES, [
    % magicDesignUsageTokens
    0,0,0,0,0,0,0,0,0,0,0,0,0,0,0,0,1,0,0,0,0,0,0,0,0,0,0,0,0,0,0,0,0,0,0,0,0,0,0,0,0,0,0,0,0,0,0,0,0,0,0,0,0,0,0,0,0,0,0,0,0,
    % brandKitsUnits
    0,0,0,0,0,0,0,0,0,0,0,0,0,0,0,0,0,0,0,0,0,0,0,0,0,0,0,0,0,0,0,0,0,0,0,0,0,0,0,0,0,0,0,0,0,0,0,0,0,1,0,0,0,0,0,0,0,0,0,0,0,
    % cloudStorageLimit
    0,0,0,0,0,0,0,0,0,0,0,0,0,0,0,0,0,0,0,0,0,0,0,0,0,0,0,0,0,0,0,0,0,0,0,0,0,0,0,0,0,0,0,0,0,0,0,0,0,0,0,0,0,1,0,0,0,0,0,0,0
]);

plans_features = array2d(PLANS, FEATURES, [
    % FREE
    1,1,1,1,1,0,1,0,0,0,0,0,0,0,1,1,1,1,0,1,1,1,0,0,0,0,0,0,1,1,0,1,0,0,0,0,0,0,1,1,1,1,1,1,1,1,1,0,0,0,0,0,0,1,1,0,0,1,1,1,1,
    % PRO
    1,1,1,1,1,0,1,1,1,1,1,1,1,1,1,1,1,1,1,1,1,1,1,1,1,1,1,1,1,1,0,1,1,1,1,0,0,1,1,1,1,1,1,1,1,1,1,1,1,1,1,1,1,1,1,1,0,1,1,1,1,
    % TEAMS
    1,1,1,1,1,1,1,1,1,1,1,1,1,1,1,1,1,1,1,1,1,1,1,1,1,1,1,1,1,1,1,1,1,1,1,1,1,1,1,1,1,1,1,1,1,1,1,1,1,1,1,1,1,1,1,1,1,1,1,1,1
]);
plans_usage_limits = array2d(PLANS, USAGE_LIMITS, [
    % FREE
    10,100,5,
    % PRO
    1000000000,100,1000,
    % TEAMS
    1000000000,300,1000
]);

addons_features = array2d(ADDONS, FEATURES, [
]);
addons_usage_limits = array2d(ADDONS, USAGE_LIMITS, [
]);
addons_usage_limits_extensions = array2d(ADDONS, USAGE_LIMITS, [
]);
addons_available_for = array2d(ADDONS, PLANS, [
]);
addons_depends_on = array2d(ADDONS, ADDONS, [
]);
